NAME 
ROWS
 N  OBJ
 L  R0      
 E  R1      
 E  R2      
 E  R3      
 E  R4      
 E  R5      
 E  R6      
 E  R7      
 E  R8      
 E  R9      
 E  R10     
 E  R11     
 E  R12     
 E  R13     
 E  R14     
 E  R15     
 E  R16     
 E  R17     
 E  R18     
 E  R19     
 E  R20     
 E  R21     
 E  R22     
 E  R23     
 E  R24     
 E  R25     
COLUMNS
    MARKER    'MARKER'                 'INTORG'
    I0(8)     OBJ       -147
    I0(8)     R0        40
    I0(8)     R1        9
    I0(8)     R2        3
    I0(8)     R4        13
    I0(8)     R5        19
    I0(8)     R7        15
    I0(8)     R11       14
    I0(8)     R25       1
    I1(9)     OBJ       162
    I1(9)     R0        -196
    I1(9)     R4        -1
    I1(9)     R6        1
    I1(9)     R7        10
    I1(9)     R8        5
    I1(9)     R9        10
    I1(9)     R10       3
    I1(9)     R12       15
    I1(9)     R25       1
    I2(9)     OBJ       -114
    I2(9)     R0        -127
    I2(9)     R4        14
    I2(9)     R5        2
    I2(9)     R6        16
    I2(9)     R7        15
    I2(9)     R9        17
    I2(9)     R10       17
    I2(9)     R12       8
    I2(9)     R25       1
    I3(11)    OBJ       114
    I3(11)    R0        -133
    I3(11)    R1        11
    I3(11)    R4        6
    I3(11)    R5        17
    I3(11)    R6        8
    I3(11)    R7        2
    I3(11)    R8        17
    I3(11)    R10       18
    I3(11)    R11       13
    I3(11)    R12       7
    I3(11)    R25       1
    I4(11)    OBJ       33
    I4(11)    R0        53
    I4(11)    R1        15
    I4(11)    R2        6
    I4(11)    R3        8
    I4(11)    R4        9
    I4(11)    R6        3
    I4(11)    R7        14
    I4(11)    R9        18
    I4(11)    R10       16
    I4(11)    R11       1
    I4(11)    R25       1
    I5(8)     OBJ       29
    I5(8)     R0        93
    I5(8)     R1        2
    I5(8)     R3        14
    I5(8)     R5        16
    I5(8)     R7        2
    I5(8)     R8        13
    I5(8)     R10       17
    I5(8)     R25       1
    I6(10)    OBJ       -76
    I6(10)    R0        184
    I6(10)    R1        9
    I6(10)    R4        4
    I6(10)    R5        10
    I6(10)    R6        5
    I6(10)    R8        7
    I6(10)    R9        6
    I6(10)    R11       11
    I6(10)    R12       3
    I6(10)    R25       1
    I7(9)     OBJ       -42
    I7(9)     R0        81
    I7(9)     R2        10
    I7(9)     R3        11
    I7(9)     R6        10
    I7(9)     R7        12
    I7(9)     R8        9
    I7(9)     R11       16
    I7(9)     R12       8
    I7(9)     R25       1
    I8(12)    OBJ       142
    I8(12)    R0        31
    I8(12)    R1        14
    I8(12)    R2        18
    I8(12)    R3        18
    I8(12)    R5        4
    I8(12)    R6        2
    I8(12)    R7        11
    I8(12)    R8        8
    I8(12)    R9        13
    I8(12)    R10       6
    I8(12)    R12       7
    I8(12)    R25       1
    I9(12)    OBJ       72
    I9(12)    R0        170
    I9(12)    R2        9
    I9(12)    R3        4
    I9(12)    R4        17
    I9(12)    R5        8
    I9(12)    R6        4
    I9(12)    R7        1
    I9(12)    R8        8
    I9(12)    R9        9
    I9(12)    R10       4
    I9(12)    R12       -1
    I9(12)    R25       1
    I10(12)   OBJ       -177
    I10(12)   R0        -102
    I10(12)   R1        13
    I10(12)   R2        6
    I10(12)   R3        16
    I10(12)   R4        17
    I10(12)   R6        14
    I10(12)   R7        2
    I10(12)   R8        -1
    I10(12)   R9        4
    I10(12)   R10       13
    I10(12)   R12       4
    I10(12)   R25       1
    I11(10)   OBJ       176
    I11(10)   R0        -19
    I11(10)   R1        13
    I11(10)   R4        10
    I11(10)   R5        16
    I11(10)   R6        10
    I11(10)   R8        17
    I11(10)   R9        1
    I11(10)   R10       12
    I11(10)   R11       3
    I11(10)   R25       1
    MARKER    'MARKER'                 'INTEND'
    C12(16)   OBJ       -10
    C12(16)   R0        -3
    C12(16)   R1        3
    C12(16)   R2        13
    C12(16)   R3        -1
    C12(16)   R4        19
    C12(16)   R6        8
    C12(16)   R7        13
    C12(16)   R10       1
    C12(16)   R11       6
    C12(16)   R12       1
    C12(16)   R14       17
    C12(16)   R15       12
    C12(16)   R18       11
    C12(16)   R19       17
    C12(16)   R23       -1
    C12(16)   R24       12
    C13(19)   OBJ       7
    C13(19)   R0        -7
    C13(19)   R1        7
    C13(19)   R2        14
    C13(19)   R3        5
    C13(19)   R5        9
    C13(19)   R6        16
    C13(19)   R7        7
    C13(19)   R8        16
    C13(19)   R9        17
    C13(19)   R10       4
    C13(19)   R13       17
    C13(19)   R14       -1
    C13(19)   R15       19
    C13(19)   R17       7
    C13(19)   R18       1
    C13(19)   R20       13
    C13(19)   R21       16
    C13(19)   R22       17
    C13(19)   R23       10
    C14(17)   OBJ       4
    C14(17)   R0        -9
    C14(17)   R2        16
    C14(17)   R4        4
    C14(17)   R6        6
    C14(17)   R7        10
    C14(17)   R8        7
    C14(17)   R9        7
    C14(17)   R10       16
    C14(17)   R11       5
    C14(17)   R12       -1
    C14(17)   R13       19
    C14(17)   R14       8
    C14(17)   R17       8
    C14(17)   R20       3
    C14(17)   R22       2
    C14(17)   R23       6
    C14(17)   R24       1
    C15(18)   OBJ       3
    C15(18)   R0        -4
    C15(18)   R1        14
    C15(18)   R2        13
    C15(18)   R4        16
    C15(18)   R5        17
    C15(18)   R7        16
    C15(18)   R8        5
    C15(18)   R9        19
    C15(18)   R10       13
    C15(18)   R12       2
    C15(18)   R13       2
    C15(18)   R16       -1
    C15(18)   R17       2
    C15(18)   R18       16
    C15(18)   R19       15
    C15(18)   R22       18
    C15(18)   R23       6
    C15(18)   R24       15
    C16(13)   OBJ       -7
    C16(13)   R0        8
    C16(13)   R1        12
    C16(13)   R4        -1
    C16(13)   R5        15
    C16(13)   R8        1
    C16(13)   R9        19
    C16(13)   R11       6
    C16(13)   R12       1
    C16(13)   R14       8
    C16(13)   R18       4
    C16(13)   R20       5
    C16(13)   R21       19
    C16(13)   R23       7
    C17(18)   OBJ       3
    C17(18)   R0        2
    C17(18)   R1        14
    C17(18)   R2        3
    C17(18)   R3        11
    C17(18)   R5        14
    C17(18)   R7        -1
    C17(18)   R8        4
    C17(18)   R10       8
    C17(18)   R11       4
    C17(18)   R12       5
    C17(18)   R13       10
    C17(18)   R14       16
    C17(18)   R17       17
    C17(18)   R18       9
    C17(18)   R19       7
    C17(18)   R21       2
    C17(18)   R22       13
    C17(18)   R24       13
    C18(18)   OBJ       -5
    C18(18)   R0        -7
    C18(18)   R3        1
    C18(18)   R5        1
    C18(18)   R6        2
    C18(18)   R7        7
    C18(18)   R8        9
    C18(18)   R9        17
    C18(18)   R10       12
    C18(18)   R11       17
    C18(18)   R12       19
    C18(18)   R13       3
    C18(18)   R14       -1
    C18(18)   R16       -1
    C18(18)   R17       16
    C18(18)   R20       13
    C18(18)   R21       1
    C18(18)   R22       15
    C18(18)   R23       11
    C19(12)   OBJ       -6
    C19(12)   R0        9
    C19(12)   R1        9
    C19(12)   R2        18
    C19(12)   R3        2
    C19(12)   R4        -1
    C19(12)   R12       3
    C19(12)   R14       12
    C19(12)   R16       8
    C19(12)   R17       12
    C19(12)   R18       2
    C19(12)   R23       4
    C19(12)   R24       5
    C20(17)   OBJ       8
    C20(17)   R0        4
    C20(17)   R1        14
    C20(17)   R2        2
    C20(17)   R3        18
    C20(17)   R5        6
    C20(17)   R7        12
    C20(17)   R8        8
    C20(17)   R9        6
    C20(17)   R11       8
    C20(17)   R13       3
    C20(17)   R15       16
    C20(17)   R16       5
    C20(17)   R18       11
    C20(17)   R19       13
    C20(17)   R21       19
    C20(17)   R23       14
    C20(17)   R24       13
    C21(18)   OBJ       -2
    C21(18)   R0        -6
    C21(18)   R2        18
    C21(18)   R3        19
    C21(18)   R5        3
    C21(18)   R6        12
    C21(18)   R7        13
    C21(18)   R8        6
    C21(18)   R9        16
    C21(18)   R10       -1
    C21(18)   R12       18
    C21(18)   R13       11
    C21(18)   R14       13
    C21(18)   R15       12
    C21(18)   R17       6
    C21(18)   R18       10
    C21(18)   R20       7
    C21(18)   R21       15
    C21(18)   R22       15
    C22(15)   OBJ       -9
    C22(15)   R0        -7
    C22(15)   R2        9
    C22(15)   R5        -1
    C22(15)   R6        12
    C22(15)   R7        18
    C22(15)   R8        12
    C22(15)   R9        8
    C22(15)   R10       12
    C22(15)   R14       3
    C22(15)   R15       4
    C22(15)   R16       2
    C22(15)   R17       -1
    C22(15)   R20       8
    C22(15)   R22       9
    C22(15)   R24       -1
    C23(19)   OBJ       -6
    C23(19)   R0        -8
    C23(19)   R1        10
    C23(19)   R3        2
    C23(19)   R4        11
    C23(19)   R5        -1
    C23(19)   R6        3
    C23(19)   R7        11
    C23(19)   R8        1
    C23(19)   R9        1
    C23(19)   R12       2
    C23(19)   R13       8
    C23(19)   R14       15
    C23(19)   R16       18
    C23(19)   R17       6
    C23(19)   R18       -1
    C23(19)   R19       7
    C23(19)   R21       9
    C23(19)   R22       15
    C23(19)   R23       11
    C24(16)   OBJ       -5
    C24(16)   R0        2
    C24(16)   R1        7
    C24(16)   R2        -1
    C24(16)   R3        16
    C24(16)   R4        14
    C24(16)   R7        16
    C24(16)   R9        6
    C24(16)   R10       15
    C24(16)   R12       10
    C24(16)   R13       14
    C24(16)   R15       6
    C24(16)   R16       14
    C24(16)   R17       7
    C24(16)   R18       13
    C24(16)   R21       4
    C24(16)   R24       16
    C25(1)    R1        1
    C26(1)    R2        1
    C27(1)    R3        1
    C28(1)    R4        1
    C29(1)    R5        1
    C30(1)    R6        1
    C31(1)    R7        1
    C32(1)    R8        1
    C33(1)    R9        1
    C34(1)    R10       1
    C35(1)    R11       1
    C36(1)    R12       1
    C37(1)    R13       1
    C38(1)    R14       1
    C39(1)    R15       1
    C40(1)    R16       1
    C41(1)    R17       1
    C42(1)    R18       1
    C43(1)    R19       1
    C44(1)    R20       1
    C45(1)    R21       1
    C46(1)    R22       1
    C47(1)    R23       1
    C48(1)    R24       1
    C49(1)    R25       1
RHS
    RHS1      R0        16.1430894308943
    RHS1      R1        99
    RHS1      R2        60
    RHS1      R3        90
    RHS1      R4        57
    RHS1      R5        88
    RHS1      R6        54
    RHS1      R7        53
    RHS1      R8        50
    RHS1      R9        56
    RHS1      R10       71
    RHS1      R11       55
    RHS1      R12       99
    RHS1      R13       82
    RHS1      R14       93
    RHS1      R15       97
    RHS1      R16       69
    RHS1      R17       93
    RHS1      R18       72
    RHS1      R19       95
    RHS1      R20       91
    RHS1      R21       55
    RHS1      R22       91
    RHS1      R23       93
    RHS1      R24       87
    RHS1      R25       4
BOUNDS
 UP BND1      I0(8)     1
 UP BND1      I1(9)     1
 UP BND1      I2(9)     1
 UP BND1      I3(11)    1
 UP BND1      I4(11)    1
 UP BND1      I5(8)     1
 UP BND1      I6(10)    1
 UP BND1      I7(9)     1
 UP BND1      I8(12)    1
 UP BND1      I9(12)    1
 UP BND1      I10(12)   1
 UP BND1      I11(10)   1
ENDATA
